142
1000
144
344
81
203
7
113
12
335
358
273
474
33
101
32
178
134
16
122
66
95
476
156
105
473
334
173
184
357
363
35
231
70
371
192
75
144
75
25
499
403
25
18
55
148
24
263
60
396
331
456
23
193
250
182
33
60
426
1
272
10
13
41
107
248
268
136
473
332
39
182
282
377
480
144
157
319
359
139
183
39
308
264
267
376
446
276
429
89
185
411
483
296
418
274
219
379
175
239
328
430
447
95
184
30
296
267
128
181
11
188
278
264
162
274
156
110
54
33
361
294
282
192
270
466
265
27
260
305
6
54
2
239
497
50
251
46
225
69
223
285
329
146
